
  32    4
  10   10   10   10

   0   0   0   0   0   1 2 
   8   1   1   0   1   2 8 3 
  10   3   0   1   5   3 31 13 4 
  10   5   0   6   7   1 5 
   6   0   2   5   2   1 6 
   5   0   2   4   5   2 30 7 
   8   4   6   0   4   2 18 9 
   4   0   4   7   3   1 9 
   5   0   3   4   2   1 10 
   9   4   4   0   8   1 11 
   6   4   0   2   3   3 29 25 12 
   7   7   0   3   3   1 14 
   4   0   7   4   5   2 30 16 
   8   2   5   0   6   1 15 
   3   4   5   3   0   1 16 
  10   4   4   0   6   1 17 
   6   5   0   1   5   3 28 27 19 
   5   0   6   3   6   2 27 20 
   7   0   4   3   1   1 20 
  10   5   0   3   3   1 21 
   5   2   0   6   3   1 22 
   5   6   4   0   6   1 23 
   9   0   7   9   3   1 24 
   8   5   2   0   3   1 26 
   5   3   0   5   3   1 26 
  10   5   0   2   4   1 32
   4   3   1   4   0   1 32
   6   6   0   7   2   1 32
   1   3   5   4   0   1 32
   7   0   4   2   5   1 32
   9   3   4   4   0   1 32
   0   0   0   0   0   0 
